&control
  calculation='scf',
  prefix='pt_hcp',
  pseudo_dir='./pseudo',
  outdir='./scratch'
/
&system
  ibrav=4, A=2.80, C=4.57,
  nat=2, ntyp=1,
  ecutwfc=60, ecutrho=480,
  occupations='smearing', smearing='mp', degauss=0.03
/
&electrons
  conv_thr=1.0d-6
/
ATOMIC_SPECIES
  Pt 195.084 pt_pbesol_v1.4.uspp.F.UPF
ATOMIC_POSITIONS crystal
  Pt 0.000000 0.000000 0.000000
  Pt 0.666667 0.333333 0.500000
K_POINTS automatic
  16 16 12  1 1 1

