&control
  calculation='scf', prefix='pt_sc_A__A__',
  pseudo_dir='./pseudo', outdir='./scratch'
/
&system
  ibrav=1, A=__A__,
  nat=1, ntyp=1, ecutwfc=60, ecutrho=480,
  occupations='smearing', smearing='mp', degauss=0.03
/
&electrons
  conv_thr=1.0d-6
/
ATOMIC_SPECIES
  Pt 195.084 pt_pbesol_v1.4.uspp.F.UPF
ATOMIC_POSITIONS crystal
  Pt 0 0 0
K_POINTS automatic
  16 16 16  1 1 1
