&control
    calculation   = 'scf',
    prefix        = 'Ag',
    pseudo_dir    = '/users/jsaaved1/research/pslibrary.1.0.0/pbe/PSEUDOPOTENTIALS',
    outdir        = './tmp/Ag_scan_k',
    verbosity     = 'high'
/
&system
    ibrav           = 2,
    A               = 4.071,
    nat             = 1,
    ntyp            = 1,
    ecutwfc         = 60.0,
    ecutrho         = 240.0,
    occupations     = 'smearing',
    smearing        = 'mp',
    degauss         = 0.02,
    input_dft       = 'PBE'
/
&electrons
    conv_thr        = 1.0d-8,
    mixing_beta     = 0.3,
    electron_maxstep= 200
/
ATOMIC_SPECIES
  Ag  107.8682  Ag.pbe-n-kjpaw_psl.1.0.0.UPF

ATOMIC_POSITIONS (crystal)
  Ag  0.0  0.0  0.0

K_POINTS automatic
  6 6 6  0 0 0

